projected/problems_b25_r0_d7_m100_s666/_DIMACS/b25_d7_r0_s666_031.cnf
p cnf 267 459 25
c p show 1 2 3 4 5 6 7 8 9 10 11 12 13 14 15 16 17 18 19 20 21 22 23 24 25
-26 -22 10 0
-27 19 0
-27 11 0
-28 27 0
-28 26 0
-29 -19 -11 0
-30 22 0
-30 -10 0
-31 30 0
-31 29 0
-32 31 28 0
-33 -19 0
-33 -17 0
-34 -20 -14 0
-35 34 33 0
-36 35 32 0
-37 17 -1 0
-38 1 -17 0
-39 38 0
-39 37 0
-40 -15 0
-40 -13 0
-41 40 39 0
-42 -16 0
-42 9 0
-43 1 0
-43 -14 0
-44 43 42 0
-45 44 41 0
-46 45 36 0
-47 9 1 0
-48 -1 -9 0
-49 48 0
-49 47 0
-50 -20 0
-50 -11 0
-51 50 49 0
-52 9 12 0
-53 16 0
-53 -14 0
-54 53 0
-54 52 0
-55 54 0
-55 51 0
-56 21 24 0
-57 7 0
-57 -24 0
-58 57 0
-58 56 0
-59 21 17 0
-60 9 0
-60 -9 0
-61 60 59 0
-62 61 0
-62 58 0
-63 62 0
-63 55 0
-64 63 46 0
-65 16 0
-65 19 0
-66 -24 0
-66 -10 0
-67 66 65 0
-68 22 -14 0
-69 3 -14 0
-70 69 0
-70 68 0
-71 70 67 0
-72 6 -17 0
-73 -9 -17 0
-74 73 0
-74 72 0
-75 11 13 0
-76 -12 0
-76 -23 0
-77 76 0
-77 75 0
-78 77 74 0
-79 78 71 0
-80 -3 0
-80 -22 0
-81 20 0
-81 -3 0
-82 81 0
-82 80 0
-83 10 0
-83 -22 0
-84 83 30 0
-85 1 23 0
-86 85 0
-86 84 0
-87 86 82 0
-88 -10 22 0
-89 88 0
-89 26 0
-90 -1 0
-90 -23 0
-91 90 89 0
-92 3 22 0
-93 -20 3 0
-94 93 92 0
-95 94 91 0
-96 95 0
-96 87 0
-97 8 0
-97 18 0
-98 15 0
-98 -6 0
-99 98 97 0
-100 -15 6 0
-101 -8 -18 0
-102 101 100 0
-103 102 0
-103 99 0
-104 8 16 0
-105 -16 -8 0
-106 105 0
-106 104 0
-107 7 -21 0
-108 107 0
-108 106 0
-109 108 0
-109 103 0
-110 109 0
-110 96 0
-111 100 0
-111 101 0
-112 97 0
-112 98 0
-113 112 111 0
-114 -8 0
-114 -16 0
-115 16 0
-115 8 0
-116 115 114 0
-117 -7 0
-117 21 0
-118 117 116 0
-119 118 113 0
-120 91 0
-120 94 0
-121 82 0
-121 86 0
-122 121 120 0
-123 122 0
-123 119 0
-124 123 110 0
-125 124 79 0
-126 125 64 0
-127 -16 -19 0
-128 24 10 0
-129 128 0
-129 127 0
-130 -22 0
-130 14 0
-131 -3 0
-131 14 0
-132 131 130 0
-133 132 0
-133 129 0
-134 -6 0
-134 17 0
-135 9 0
-135 17 0
-136 135 134 0
-137 -11 0
-137 -13 0
-138 12 23 0
-139 138 137 0
-140 139 0
-140 136 0
-141 140 0
-141 133 0
-142 119 122 0
-143 96 109 0
-144 143 0
-144 142 0
-145 144 0
-145 141 0
-146 29 30 0
-147 26 27 0
-148 147 0
-148 146 0
-149 19 17 0
-150 20 0
-150 14 0
-151 150 0
-151 149 0
-152 151 0
-152 148 0
-153 -17 0
-153 1 0
-154 -1 0
-154 17 0
-155 154 153 0
-156 15 13 0
-157 156 0
-157 155 0
-158 16 -9 0
-159 -1 14 0
-160 159 0
-160 158 0
-161 160 0
-161 157 0
-162 161 0
-162 152 0
-163 -9 0
-163 -1 0
-164 1 0
-164 9 0
-165 164 163 0
-166 20 11 0
-167 166 0
-167 165 0
-168 -9 0
-168 -12 0
-169 -16 14 0
-170 169 168 0
-171 170 167 0
-172 -21 0
-172 -24 0
-173 -7 24 0
-174 173 172 0
-175 -21 0
-175 -17 0
-176 -9 9 0
-177 176 0
-177 175 0
-178 177 174 0
-179 178 171 0
-180 179 0
-180 162 0
-181 180 145 0
-182 181 0
-182 126 0
-183 19 -3 0
-184 12 0
-184 -2 0
-185 184 0
-185 183 0
-186 -18 -8 0
-187 -7 14 0
-188 187 0
-188 186 0
-189 188 185 0
-190 11 0
-190 -9 0
-191 -7 0
-192 191 0
-192 190 0
-193 19 0
-193 -12 0
-194 -17 0
-194 -13 0
-195 194 193 0
-196 195 0
-196 192 0
-197 196 189 0
-198 10 -21 0
-199 -3 -14 0
-200 14 3 0
-201 200 0
-201 199 0
-202 201 0
-202 198 0
-203 -10 0
-203 -16 0
-204 -2 0
-204 -25 0
-205 204 203 0
-206 205 202 0
-207 10 16 0
-208 2 25 0
-209 208 0
-209 207 0
-210 -10 0
-210 21 0
-211 3 0
-211 14 0
-212 -14 0
-212 -3 0
-213 212 211 0
-214 213 210 0
-215 214 209 0
-216 215 0
-216 206 0
-217 -17 0
-217 -3 0
-218 23 0
-218 3 0
-219 218 0
-219 217 0
-220 25 0
-220 -7 0
-221 4 0
-221 16 0
-222 221 220 0
-223 222 0
-223 219 0
-224 223 216 0
-225 224 0
-225 197 0
-226 2 0
-227 -16 11 0
-228 227 226 0
-229 -18 0
-229 -9 0
-230 -22 0
-230 17 0
-231 -17 0
-231 22 0
-232 231 230 0
-233 232 229 0
-234 233 0
-234 228 0
-235 -18 7 0
-236 -8 0
-236 -6 0
-237 236 235 0
-238 -3 8 0
-239 19 23 0
-240 -23 -19 0
-241 240 0
-241 239 0
-242 241 0
-242 238 0
-243 242 237 0
-244 243 234 0
-245 -4 -10 0
-246 14 -22 0
-247 246 245 0
-248 -14 0
-248 22 0
-249 4 0
-249 10 0
-250 249 248 0
-251 250 0
-251 247 0
-252 21 0
-253 -1 10 0
-254 253 252 0
-255 254 251 0
-256 -14 0
-256 -2 0
-257 17 0
-257 5 0
-258 257 256 0
-259 1 17 0
-260 -17 -1 0
-261 260 0
-261 259 0
-262 5 0
-262 3 0
-263 262 261 0
-264 263 258 0
-265 264 255 0
-266 265 244 0
-267 266 225 0
267 182 0
-127 -65 0
-65 -127 0
-128 -66 0
-66 -128 0
-67 -129 0
-129 -67 0
-68 -130 0
-130 -68 0
-69 -131 0
-131 -69 0
-132 -70 0
-133 -71 0
-72 -134 0
-73 -135 0
-74 -136 0
-137 -75 0
-75 -137 0
-76 -138 0
-77 -139 0
-78 -140 0
-140 -78 0
-141 -79 0
-98 -100 0
-100 -98 0
-101 -97 0
-97 -101 0
-103 -113 0
-106 -116 0
-107 -117 0
-108 -118 0
-109 -119 0
-89 -84 0
-90 -85 0
-91 -86 0
-92 -80 0
-93 -81 0
-94 -82 0
-82 -94 0
-96 -122 0
-122 -96 0
-144 -124 0
-145 -125 0
-27 -29 0
-26 -30 0
-30 -26 0
-148 -32 0
-32 -148 0
-33 -149 0
-34 -150 0
-35 -151 0
-36 -152 0
-39 -155 0
-40 -156 0
-41 -157 0
-158 -42 0
-43 -159 0
-159 -43 0
-160 -44 0
-44 -160 0
-45 -161 0
-46 -162 0
-162 -46 0
-49 -165 0
-165 -49 0
-50 -166 0
-166 -50 0
-167 -51 0
-168 -52 0
-52 -168 0
-169 -53 0
-53 -169 0
-54 -170 0
-170 -54 0
-171 -55 0
-56 -172 0
-172 -56 0
-57 -173 0
-173 -57 0
-174 -58 0
-59 -175 0
-60 -176 0
-61 -177 0
-177 -61 0
-178 -62 0
-179 -63 0
-180 -64 0
-64 -180 0
-207 -203 0
-203 -207 0
-204 -208 0
-205 -209 0
-209 -205 0
-198 -210 0
-210 -198 0
-201 -213 0
-213 -201 0
-214 -202 0
-202 -214 0
-248 -246 0
-245 -249 0
